Instance name : DPDPTWUR-R_one_clustering_DPDPTW-R_mitrovic-minic_Rnd6_10h_100_004_slice_5
Authors : 
Date : 
Reference 
Solution
Route 1 : 6 62 54 40 5 110 18 3 38 11 4 61 74 67 46 44 100 102 9 60 52 96 108 94 65 59 50 106 
Route 2 : 10 36 30 26 1 92 57 39 27 95 37 83 15 93 25 71 35 86 81 91 12 23 66 24 82 79 68 80 47 33 89 21 77 103 
Route 3 : 7 63 31 87 45 41 97 101 29 85 16 48 42 22 104 34 90 17 73 78 72 98 
Route 4 : 2 53 109 58 19 75 56 112 49 105 
Route 5 : 8 64 28 84 55 111 
Route 6 : 51 32 14 88 107 70 
Route 7 : 
Route 8 : 
Route 9 : 
Route 10 : 
Route 11 : 
Route 12 : 
Route 13 : 
Route 14 : 
Route 15 : 
Route 16 : 
Route 17 : 
Route 18 : 
Route 19 : 
Route 20 : 
Route 21 : 
